HEIGHT = 9;
WIDTH = 9;
AGENTS = 6;

path = array2d(1..AGENTS, Marker,
  [|(y: 3, x: 1, d: ">"), (y: 7, x: 9, d: ">")
   |(y: 5, x: 1, d: ">"), (y: 5, x: 9, d: ">")
   |(y: 7, x: 1, d: ">"), (y: 3, x: 9, d: ">")
   |(y: 1, x: 3, d: "v"), (y: 9, x: 7, d: "v")
   |(y: 1, x: 5, d: "v"), (y: 9, x: 5, d: "v")
   |(y: 1, x: 7, d: "v"), (y: 9, x: 3, d: "v")|]);

walls =
  [|0,0,0,0,0,0,0,0,0
   |0,0,0,0,0,0,0,0,0
   |0,0,0,0,0,0,0,0,0
   |0,0,0,0,0,0,0,0,0
   |0,0,0,0,1,0,0,0,0
   |0,0,0,0,0,0,0,0,0
   |0,0,0,0,0,0,0,0,0
   |0,0,0,0,0,0,0,0,0
   |0,0,0,0,0,0,0,0,0|]